CMD:
./solvers/bin/cadical --plain --no-reduce -t 1600 ./data/cnfs//qspiflash_dualflexpress_divfive-p079/qspiflash_dualflexpress_divfive-p079.62.cnf

c --- [ banner ] -------------------------------------------------------------
c 
c CaDiCaL SAT Solver
c Copyright (c) 2016-2024
c A. Biere, M. Fleury, N. Froleyks, K. Fazekas, F. Pollitt, T. Faller
c JKU Linz, University of Freiburg, TU Wien
c 
c Version 2.1.3 5296d3d2a9bf48c154ab2acb5e44625776d821bf
c g++ (Gentoo 12.3.1_p20230526 p2) 12.3.1 20230526 -Wall -Wextra -O3 -DNDEBUG
c Sat Aug 9 07:26:21 PDT 2025 Linux cedar2.int.cedar.computecanada.ca 5.14.0-362.24.2.el9_3.x86_64 x86_64
c 
c --- [ limit ] --------------------------------------------------------------
c 
c setting time limit to 1600 seconds real time (due to '-t 1600')
c 
c --- [ parsing input ] ------------------------------------------------------
c 
c reading DIMACS file from './data/cnfs//qspiflash_dualflexpress_divfive-p079/qspiflash_dualflexpress_divfive-p079.62.cnf'
c opening file to read './data/cnfs//qspiflash_dualflexpress_divfive-p079/qspiflash_dualflexpress_divfive-p079.62.cnf'
c found 'p cnf 186796 545226' header
c parsed 545226 clauses in 0.08 seconds process time
c 
c --- [ options ] ------------------------------------------------------------
c 
c   --compact=false                (different from default 'true')
c   --decompose=false              (different from default 'true')
c   --deduplicate=false            (different from default 'true')
c   --elim=false                   (different from default 'true')
c   --probe=false                  (different from default 'true')
c   --reduce=false                 (different from default 'true')
c   --subsume=false                (different from default 'true')
c   --ternary=false                (different from default 'true')
c   --transred=false               (different from default 'true')
c   --vivify=false                 (different from default 'true')
c 
c --- [ solving ] ------------------------------------------------------------
c 
c time measured in process time since initialization
c 
c  seconds  reductions  redundant  irredundant
c         MB    restarts       trail       variables
c          level   conflicts       glue          remaining
c 
c *  0.08 86  0 0   0    0    0  0% 0 523953 172745 92%
c {  0.12 88  0 0   0    0    0  0% 0 523953 172745 92%
c i  0.13 89 14 0   0    9    8 14% 1 523953 172722 92%
c i  0.14 89 29 0   0   51   49 20% 2 523953 172281 92%
c i  0.14 89 30 0   0   56   52 20% 2 523953 172267 92%
c i  0.14 89 32 0   0   69   60 19% 2 523953 172253 92%
c i  0.14 89 33 0   0   80   67 19% 2 523953 172239 92%
c i  0.15 89 33 0   0  100   83 18% 2 523953 172227 92%
c i  0.16 89 45 0   6  148  126 18% 2 523953 172116 92%
c i  0.16 89 43 0   8  166  140 17% 2 523953 172107 92%
c i  0.16 89 43 0   9  167  140 17% 2 523953 172103 92%
c i  0.17 89 42 0  18  208  173 16% 3 523953 172091 92%
c i  0.17 89 42 0  19  212  175 16% 3 523953 172049 92%
c i  0.18 89 40 0  31  266  214 16% 3 523953 172045 92%
c i  0.23 91 44 0  81  584  495 17% 3 523953 172044 92%
c i  0.23 91 44 0  81  591  500 17% 3 523953 171716 92%
c i  0.25 91 44 0  88  657  555 18% 3 523953 171486 92%
c }  0.28 91 48 0 109 1001  845 17% 3 523953 171486 92%
c [  0.28 91  0 0 109 1001  845  0% 0 523953 171486 92%
c O  0.31 91 1372 0 109 1002  846 92% 12 523953 171486 92%
c 
c  seconds    reductions  redundant  irredundant
c         MB      restarts       trail       variables
c           level    conflicts       glue          remaining
c 
c i  0.34 91 1262 0 109 1394 1207 85% 5 523953 171485 92%
c i  0.46 91 942 0 110 2513 2220 65% 6 523953 171484 92%
c i  0.49 91 832 0 110 2769 2449 59% 6 523953 171483 92%
c i  0.49 91 824 0 110 2787 2466 59% 6 523953 171482 92%
c i  0.50 91 781 0 110 2885 2558 56% 5 523953 171481 92%
c ]  0.51 91 736 0 110 3002 2659 54% 6 523953 171481 92%
c {  0.51 91 48 0 110 3002 2659 17% 3 523953 171481 92%
c F  0.52 91 48 0 111 3003 2660 17% 3 523953 171481 92%
c i  0.54 91 51 0 122 3255 2877 19% 3 523953 171477 92%
c i  0.57 91 49 0 156 3419 3005 18% 4 523953 171473 92%
c i  0.63 91 46 0 209 3946 3490 19% 4 523953 171469 92%
c i  0.64 91 45 0 221 3988 3529 19% 4 523953 171454 92%
c i  0.66 91 46 0 232 4145 3670 19% 4 523953 171453 92%
c i  0.70 91 46 0 269 4472 3963 19% 4 523953 171440 92%
c i  0.71 91 45 0 269 4539 4025 19% 4 523953 171425 92%
c i  0.77 91 40 0 298 5296 4704 18% 4 523953 171421 92%
c i  0.77 91 40 0 307 5334 4740 18% 4 523953 171417 92%
c i  0.79 91 39 0 335 5459 4854 18% 4 523953 171413 92%
c i  0.81 91 38 0 363 5574 4960 18% 4 523953 171409 92%
c i  0.81 91 38 0 367 5597 4979 18% 4 523953 171405 92%
c 
c  seconds  reductions  redundant  irredundant
c         MB    restarts       trail       variables
c          level   conflicts       glue          remaining
c 
c i  0.82 91 38 0 386 5673 5045 18% 4 523953 171401 92%
c i  0.83 91 37 0 402 5755 5119 18% 4 523953 171397 92%
c #  0.85 91 36 0 412 6004 5338 17% 4 523953 171397 92%
c i  0.86 91 36 0 419 6103 5422 17% 4 523953 171393 92%
c i  0.87 91 36 0 419 6119 5428 17% 4 523953 171242 92%
c i  0.91 92 35 0 466 6362 5639 17% 4 523953 171238 92%
c i  0.91 92 35 0 475 6420 5678 17% 4 523953 171091 92%
c i  0.92 92 35 0 475 6429 5682 17% 4 523953 170940 92%
c i  0.92 92 34 0 475 6438 5688 17% 4 523953 170936 92%
c i  0.92 92 34 0 475 6458 5705 17% 4 523953 170935 92%
c i  0.95 92 34 0 515 6700 5915 17% 4 523953 170931 92%
c }  0.99 92 33 0 536 7004 6190 17% 4 523953 170931 92%
c [  0.99 92 736 0 536 7004 6190 54% 6 523953 170931 92%
c i  1.02 92 688 0 537 7155 6313 51% 6 523953 170927 92%
c i  1.17 92 468 0 537 8226 7289 40% 6 523953 170926 92%
c i  1.27 92 398 0 537 8829 7813 37% 6 523953 170911 91%
c i  1.29 92 396 0 537 8867 7847 37% 6 523953 170907 91%
c i  1.33 92 363 0 538 9253 8189 35% 6 523953 170906 91%
c i  1.34 92 361 0 538 9287 8216 35% 6 523953 170905 91%
c i  1.39 92 323 0 538 9828 8673 33% 7 523953 170423 91%
c 
c  seconds   reductions  redundant  irredundant
c         MB     restarts       trail       variables
c           level   conflicts       glue          remaining
c 
c i  1.41 92 315 0 538 9960 8771 32% 7 523953 170419 91%
c I  1.42 92 312 0 538 10006 8811 32% 7 523953 170378 91%
c i  1.56 92 269 0 539 10847 9485 30% 7 523953 158500 85%
c i  1.56 92 267 0 539 10895 9515 29% 7 523953 157977 85%
c ]  1.56 92 266 0 539 10904 9520 29% 7 523953 156842 84%
c 0  1.56 92 266 0 539 10904 9520 29% 7 523953 156842 84%
c 
c --- [ result ] -------------------------------------------------------------
c 
s UNSATISFIABLE
c 
c --- [ run-time profiling ] -------------------------------------------------
c 
c process time taken by individual solving procedures
c (percentage relative to process time for solving)
c 
c         1.48   99.99% search
c         0.80   54.13% stable
c         0.64   43.10% unstable
c         0.08    5.40% parse
c         0.04    2.76% lucky
c         0.00    0.00% simplify
c   =================================
c         1.48   94.84% solve
c 
c last line shows process time for solving
c (percentage relative to total process time)
c 
c --- [ statistics ] ---------------------------------------------------------
c 
c chronological:              4547        41.70 %  of conflicts
c conflicts:                 10904      7365.73    per second
c decisions:                 36504     24658.72    per second
c fixed:                     29920        16.02 %  of all variables
c learned:                   10314        94.59 %  per conflict
c learned_lits:             232008       100.00 %  learned literals
c minimized:                     0         0.00 %  learned literals
c shrunken:                  40984        17.66 %  learned literals
c minishrunken:              41519        17.90 %  learned literals
c otfs:                        139         1.27 %  of conflict
c propagations:           29174856        19.71 M  per second
c rephased:                      4      2726.00    interval
c restarts:                    539        20.23    interval
c stabilizing:                   2        54.11 %  of conflicts
c subsumed:                    742         0.14 %  of all clauses
c strengthened:                138         0.03 %  of all clauses
c 
c seconds are measured in process time for solving
c 
c --- [ resources ] ----------------------------------------------------------
c 
c total process time since initialization:         1.56    seconds
c total real time since initialization:            1.57    seconds
c maximum resident set size of process:           92.63    MB
c 
c --- [ shutting down ] ------------------------------------------------------
c 
c exit 20
